p cnf 962 2469
51 -2 -695 0
-51 2 0
-51 695 0
52 -51 -3 0
-52 51 0
-52 3 0
53 -5 -696 0
-53 5 0
-53 696 0
54 -53 -697 0
-54 53 0
-54 697 0
55 -698 -699 0
-55 698 0
-55 699 0
56 -700 -1 0
-56 700 0
-56 1 0
57 -56 -701 0
-57 56 0
-57 701 0
58 -702 -55 0
-58 702 0
-58 55 0
59 -7 -703 0
-59 7 0
-59 703 0
60 -59 -9 0
-60 59 0
-60 9 0
61 -704 -58 0
-61 704 0
-61 58 0
62 -11 -705 0
-62 11 0
-62 705 0
63 -62 -12 0
-63 62 0
-63 12 0
64 -706 -61 0
-64 706 0
-64 61 0
65 -707 -703 0
-65 707 0
-65 703 0
66 -65 -695 0
-66 65 0
-66 695 0
67 -708 -64 0
-67 708 0
-67 64 0
68 -709 -710 0
-68 709 0
-68 710 0
69 -68 -711 0
-69 68 0
-69 711 0
70 -712 -67 0
-70 712 0
-70 67 0
71 -17 -12 0
-71 17 0
-71 12 0
72 -71 -713 0
-72 71 0
-72 713 0
73 -714 -70 0
-73 714 0
-73 70 0
74 -20 -715 0
-74 20 0
-74 715 0
75 -74 -716 0
-75 74 0
-75 716 0
76 -717 -73 0
-76 717 0
-76 73 0
77 -718 -719 0
-77 718 0
-77 719 0
78 -77 -23 0
-78 77 0
-78 23 0
79 -720 -76 0
-79 720 0
-79 76 0
80 -25 -24 0
-80 25 0
-80 24 0
81 -80 -721 0
-81 80 0
-81 721 0
82 -722 -79 0
-82 722 0
-82 79 0
83 -28 -27 0
-83 28 0
-83 27 0
84 -83 -723 0
-84 83 0
-84 723 0
85 -724 -82 0
-85 724 0
-85 82 0
86 -705 -7 0
-86 705 0
-86 7 0
87 -86 -725 0
-87 86 0
-87 725 0
88 -726 -85 0
-88 726 0
-88 85 0
89 -727 -728 0
-89 727 0
-89 728 0
90 -89 -729 0
-90 89 0
-90 729 0
91 -730 -88 0
-91 730 0
-91 88 0
92 -731 -20 0
-92 731 0
-92 20 0
93 -92 -732 0
-93 92 0
-93 732 0
94 -733 -91 0
-94 733 0
-94 91 0
95 -734 -36 0
-95 734 0
-95 36 0
96 -95 -38 0
-96 95 0
-96 38 0
97 -735 -94 0
-97 735 0
-97 94 0
98 -28 -713 0
-98 28 0
-98 713 0
99 -98 -3 0
-99 98 0
-99 3 0
100 -736 -97 0
-100 736 0
-100 97 0
101 -18 -11 0
-101 18 0
-101 11 0
102 -101 -727 0
-102 101 0
-102 727 0
103 -737 -100 0
-103 737 0
-103 100 0
104 -738 -39 0
-104 738 0
-104 39 0
105 -104 -15 0
-105 104 0
-105 15 0
106 -739 -103 0
-106 739 0
-106 103 0
107 -740 -700 0
-107 740 0
-107 700 0
108 -107 -697 0
-108 107 0
-108 697 0
109 -741 -106 0
-109 741 0
-109 106 0
110 -742 -731 0
-110 742 0
-110 731 0
111 -110 -715 0
-111 110 0
-111 715 0
112 -743 -109 0
-112 743 0
-112 109 0
113 -40 -744 0
-113 40 0
-113 744 0
114 -113 -20 0
-114 113 0
-114 20 0
115 -745 -112 0
-115 745 0
-115 112 0
116 -746 -747 0
-116 746 0
-116 747 0
117 -116 -697 0
-117 116 0
-117 697 0
118 -748 -115 0
-118 748 0
-118 115 0
119 -749 -13 0
-119 749 0
-119 13 0
120 -119 -19 0
-120 119 0
-120 19 0
121 -750 -118 0
-121 750 0
-121 118 0
122 -729 -13 0
-122 729 0
-122 13 0
123 -122 -751 0
-123 122 0
-123 751 0
124 -752 -121 0
-124 752 0
-124 121 0
125 -43 -696 0
-125 43 0
-125 696 0
126 -125 -753 0
-126 125 0
-126 753 0
127 -754 -124 0
-127 754 0
-127 124 0
128 -742 -2 0
-128 742 0
-128 2 0
129 -128 -44 0
-129 128 0
-129 44 0
130 -755 -127 0
-130 755 0
-130 127 0
131 -756 -757 0
-131 756 0
-131 757 0
132 -131 -42 0
-132 131 0
-132 42 0
133 -758 -130 0
-133 758 0
-133 130 0
134 -756 -34 0
-134 756 0
-134 34 0
135 -134 -37 0
-135 134 0
-135 37 0
136 -759 -133 0
-136 759 0
-136 133 0
137 -760 -728 0
-137 760 0
-137 728 0
138 -137 -16 0
-138 137 0
-138 16 0
139 -761 -136 0
-139 761 0
-139 136 0
140 -719 -715 0
-140 719 0
-140 715 0
141 -140 -762 0
-141 140 0
-141 762 0
142 -763 -139 0
-142 763 0
-142 139 0
143 -42 -24 0
-143 42 0
-143 24 0
144 -143 -27 0
-144 143 0
-144 27 0
145 -764 -142 0
-145 764 0
-145 142 0
146 -20 -705 0
-146 20 0
-146 705 0
147 -146 -760 0
-147 146 0
-147 760 0
148 -765 -145 0
-148 765 0
-148 145 0
149 -21 -18 0
-149 21 0
-149 18 0
150 -149 -723 0
-150 149 0
-150 723 0
151 -766 -148 0
-151 766 0
-151 148 0
152 -731 -13 0
-152 731 0
-152 13 0
153 -152 -738 0
-153 152 0
-153 738 0
154 -767 -151 0
-154 767 0
-154 151 0
155 -749 -757 0
-155 749 0
-155 757 0
156 -155 -732 0
-156 155 0
-156 732 0
157 -768 -154 0
-157 768 0
-157 154 0
158 -13 -700 0
-158 13 0
-158 700 0
159 -158 -17 0
-159 158 0
-159 17 0
160 -769 -157 0
-160 769 0
-160 157 0
161 -723 -713 0
-161 723 0
-161 713 0
162 -161 -3 0
-162 161 0
-162 3 0
163 -770 -160 0
-163 770 0
-163 160 0
164 -771 -18 0
-164 771 0
-164 18 0
165 -164 -15 0
-165 164 0
-165 15 0
166 -772 -163 0
-166 772 0
-166 163 0
167 -719 -13 0
-167 719 0
-167 13 0
168 -167 -7 0
-168 167 0
-168 7 0
169 -773 -166 0
-169 773 0
-169 166 0
170 -710 -11 0
-170 710 0
-170 11 0
171 -170 -7 0
-171 170 0
-171 7 0
172 -774 -169 0
-172 774 0
-172 169 0
173 -42 -19 0
-173 42 0
-173 19 0
174 -173 -753 0
-174 173 0
-174 753 0
175 -775 -172 0
-175 775 0
-175 172 0
176 -46 -19 0
-176 46 0
-176 19 0
177 -176 -2 0
-177 176 0
-177 2 0
178 -776 -175 0
-178 776 0
-178 175 0
179 -36 -10 0
-179 36 0
-179 10 0
180 -179 -738 0
-180 179 0
-180 738 0
181 -777 -178 0
-181 777 0
-181 178 0
182 -778 -721 0
-182 778 0
-182 721 0
183 -182 -732 0
-183 182 0
-183 732 0
184 -779 -181 0
-184 779 0
-184 181 0
185 -728 -780 0
-185 728 0
-185 780 0
186 -185 -778 0
-186 185 0
-186 778 0
187 -781 -184 0
-187 781 0
-187 184 0
188 -39 -725 0
-188 39 0
-188 725 0
189 -188 -746 0
-189 188 0
-189 746 0
190 -782 -187 0
-190 782 0
-190 187 0
191 -721 -715 0
-191 721 0
-191 715 0
192 -191 -2 0
-192 191 0
-192 2 0
193 -783 -190 0
-193 783 0
-193 190 0
194 -34 -713 0
-194 34 0
-194 713 0
195 -194 -33 0
-195 194 0
-195 33 0
196 -784 -193 0
-196 784 0
-196 193 0
197 -47 -742 0
-197 47 0
-197 742 0
198 -197 -33 0
-198 197 0
-198 33 0
199 -785 -196 0
-199 785 0
-199 196 0
200 -729 -4 0
-200 729 0
-200 4 0
201 -200 -751 0
-201 200 0
-201 751 0
202 -786 -199 0
-202 786 0
-202 199 0
203 -41 -780 0
-203 41 0
-203 780 0
204 -203 -31 0
-204 203 0
-204 31 0
205 -787 -202 0
-205 787 0
-205 202 0
206 -26 -709 0
-206 26 0
-206 709 0
207 -206 -44 0
-207 206 0
-207 44 0
208 -788 -205 0
-208 788 0
-208 205 0
209 -734 -28 0
-209 734 0
-209 28 0
210 -209 -711 0
-210 209 0
-210 711 0
211 -789 -208 0
-211 789 0
-211 208 0
212 -713 -10 0
-212 713 0
-212 10 0
213 -212 -15 0
-213 212 0
-213 15 0
214 -790 -211 0
-214 790 0
-214 211 0
215 -42 -11 0
-215 42 0
-215 11 0
216 -215 -27 0
-216 215 0
-216 27 0
217 -791 -214 0
-217 791 0
-217 214 0
218 -47 -707 0
-218 47 0
-218 707 0
219 -218 -725 0
-219 218 0
-219 725 0
220 -792 -217 0
-220 792 0
-220 217 0
221 -793 -725 0
-221 793 0
-221 725 0
222 -221 -16 0
-222 221 0
-222 16 0
223 -794 -220 0
-223 794 0
-223 220 0
224 -727 -723 0
-224 727 0
-224 723 0
225 -224 -701 0
-225 224 0
-225 701 0
226 -795 -223 0
-226 795 0
-226 223 0
227 -796 -740 0
-227 796 0
-227 740 0
228 -227 -734 0
-228 227 0
-228 734 0
229 -797 -226 0
-229 797 0
-229 226 0
230 -728 -11 0
-230 728 0
-230 11 0
231 -230 -2 0
-231 230 0
-231 2 0
232 -798 -229 0
-232 798 0
-232 229 0
233 -796 -13 0
-233 796 0
-233 13 0
234 -233 -746 0
-234 233 0
-234 746 0
235 -799 -232 0
-235 799 0
-235 232 0
236 -721 -17 0
-236 721 0
-236 17 0
237 -236 -20 0
-237 236 0
-237 20 0
238 -800 -235 0
-238 800 0
-238 235 0
239 -710 -5 0
-239 710 0
-239 5 0
240 -239 -697 0
-240 239 0
-240 697 0
241 -801 -238 0
-241 801 0
-241 238 0
242 -749 -742 0
-242 749 0
-242 742 0
243 -242 -22 0
-243 242 0
-243 22 0
244 -802 -241 0
-244 802 0
-244 241 0
245 -104 -1 0
-245 104 0
-245 1 0
246 -803 -244 0
-246 803 0
-246 244 0
247 -43 -757 0
-247 43 0
-247 757 0
248 -247 -713 0
-248 247 0
-248 713 0
249 -804 -246 0
-249 804 0
-249 246 0
250 -12 -6 0
-250 12 0
-250 6 0
251 -250 -701 0
-251 250 0
-251 701 0
252 -805 -249 0
-252 805 0
-252 249 0
253 -48 -24 0
-253 48 0
-253 24 0
254 -253 -31 0
-254 253 0
-254 31 0
255 -806 -252 0
-255 806 0
-255 252 0
256 -23 -753 0
-256 23 0
-256 753 0
257 -256 -8 0
-257 256 0
-257 8 0
258 -807 -255 0
-258 807 0
-258 255 0
259 -40 -19 0
-259 40 0
-259 19 0
260 -259 -29 0
-260 259 0
-260 29 0
261 -808 -258 0
-261 808 0
-261 258 0
262 -30 -19 0
-262 30 0
-262 19 0
263 -262 -15 0
-263 262 0
-263 15 0
264 -809 -261 0
-264 809 0
-264 261 0
265 -44 -11 0
-265 44 0
-265 11 0
266 -265 -35 0
-266 265 0
-266 35 0
267 -810 -264 0
-267 810 0
-267 264 0
268 -710 -13 0
-268 710 0
-268 13 0
269 -268 -731 0
-269 268 0
-269 731 0
270 -811 -267 0
-270 811 0
-270 267 0
271 -44 -727 0
-271 44 0
-271 727 0
272 -271 -16 0
-272 271 0
-272 16 0
273 -812 -270 0
-273 812 0
-273 270 0
274 -48 -696 0
-274 48 0
-274 696 0
275 -274 -734 0
-275 274 0
-275 734 0
276 -813 -273 0
-276 813 0
-276 273 0
277 -38 -34 0
-277 38 0
-277 34 0
278 -277 -2 0
-278 277 0
-278 2 0
279 -814 -276 0
-279 814 0
-279 276 0
280 -34 -744 0
-280 34 0
-280 744 0
281 -280 -734 0
-281 280 0
-281 734 0
282 -815 -279 0
-282 815 0
-282 279 0
283 -46 -747 0
-283 46 0
-283 747 0
284 -283 -37 0
-284 283 0
-284 37 0
285 -816 -282 0
-285 816 0
-285 282 0
286 -744 -13 0
-286 744 0
-286 13 0
287 -286 -28 0
-287 286 0
-287 28 0
288 -817 -285 0
-288 817 0
-288 285 0
289 -33 -710 0
-289 33 0
-289 710 0
290 -289 -716 0
-290 289 0
-290 716 0
291 -818 -288 0
-291 818 0
-291 288 0
292 -819 -14 0
-292 819 0
-292 14 0
293 -292 -729 0
-293 292 0
-293 729 0
294 -820 -291 0
-294 820 0
-294 291 0
295 -36 -707 0
-295 36 0
-295 707 0
296 -295 -713 0
-296 295 0
-296 713 0
297 -821 -294 0
-297 821 0
-297 294 0
298 -48 -25 0
-298 48 0
-298 25 0
299 -298 -709 0
-299 298 0
-299 709 0
300 -822 -297 0
-300 822 0
-300 297 0
301 -762 -21 0
-301 762 0
-301 21 0
302 -301 -29 0
-302 301 0
-302 29 0
303 -823 -300 0
-303 823 0
-303 300 0
304 -30 -6 0
-304 30 0
-304 6 0
305 -304 -35 0
-305 304 0
-305 35 0
306 -824 -303 0
-306 824 0
-306 303 0
307 -742 -719 0
-307 742 0
-307 719 0
308 -307 -4 0
-308 307 0
-308 4 0
309 -825 -306 0
-309 825 0
-309 306 0
310 -756 -738 0
-310 756 0
-310 738 0
311 -310 -37 0
-311 310 0
-311 37 0
312 -826 -309 0
-312 826 0
-312 309 0
313 -41 -827 0
-313 41 0
-313 827 0
314 -313 -1 0
-314 313 0
-314 1 0
315 -828 -312 0
-315 828 0
-315 312 0
316 -734 -731 0
-316 734 0
-316 731 0
317 -316 -760 0
-317 316 0
-317 760 0
318 -829 -315 0
-318 829 0
-318 315 0
319 -39 -21 0
-319 39 0
-319 21 0
320 -319 -16 0
-320 319 0
-320 16 0
321 -830 -318 0
-321 830 0
-321 318 0
322 -819 -39 0
-322 819 0
-322 39 0
323 -322 -35 0
-323 322 0
-323 35 0
324 -831 -321 0
-324 831 0
-324 321 0
325 -742 -710 0
-325 742 0
-325 710 0
326 -325 -738 0
-326 325 0
-326 738 0
327 -832 -324 0
-327 832 0
-327 324 0
328 -793 -796 0
-328 793 0
-328 796 0
329 -328 -716 0
-329 328 0
-329 716 0
330 -833 -327 0
-330 833 0
-330 327 0
331 -756 -747 0
-331 756 0
-331 747 0
332 -331 -725 0
-332 331 0
-332 725 0
333 -834 -330 0
-333 834 0
-333 330 0
334 -835 -46 0
-334 835 0
-334 46 0
335 -334 -40 0
-335 334 0
-335 40 0
336 -836 -333 0
-336 836 0
-336 333 0
337 -45 -756 0
-337 45 0
-337 756 0
338 -337 -727 0
-338 337 0
-338 727 0
339 -837 -336 0
-339 837 0
-339 336 0
340 -42 -40 0
-340 42 0
-340 40 0
341 -340 -37 0
-341 340 0
-341 37 0
342 -838 -339 0
-342 838 0
-342 339 0
343 -742 -705 0
-343 742 0
-343 705 0
344 -343 -18 0
-344 343 0
-344 18 0
345 -839 -342 0
-345 839 0
-345 342 0
346 -723 -709 0
-346 723 0
-346 709 0
347 -346 -732 0
-347 346 0
-347 732 0
348 -840 -345 0
-348 840 0
-348 345 0
349 -34 -5 0
-349 34 0
-349 5 0
350 -349 -37 0
-350 349 0
-350 37 0
351 -841 -348 0
-351 841 0
-351 348 0
352 -780 -697 0
-352 780 0
-352 697 0
353 -352 -29 0
-353 352 0
-353 29 0
354 -842 -351 0
-354 842 0
-354 351 0
355 -762 -843 0
-355 762 0
-355 843 0
356 -355 -29 0
-356 355 0
-356 29 0
357 -844 -354 0
-357 844 0
-357 354 0
358 -30 -695 0
-358 30 0
-358 695 0
359 -358 -33 0
-359 358 0
-359 33 0
360 -845 -357 0
-360 845 0
-360 357 0
361 -45 -31 0
-361 45 0
-361 31 0
362 -361 -711 0
-362 361 0
-362 711 0
363 -846 -360 0
-363 846 0
-363 360 0
364 -41 -731 0
-364 41 0
-364 731 0
365 -364 -723 0
-365 364 0
-365 723 0
366 -847 -363 0
-366 847 0
-366 363 0
367 -819 -48 0
-367 819 0
-367 48 0
368 -367 -30 0
-368 367 0
-368 30 0
369 -848 -366 0
-369 848 0
-369 366 0
370 -41 -10 0
-370 41 0
-370 10 0
371 -370 -16 0
-371 370 0
-371 16 0
372 -849 -369 0
-372 849 0
-372 369 0
373 -731 -744 0
-373 731 0
-373 744 0
374 -373 -771 0
-374 373 0
-374 771 0
375 -850 -372 0
-375 850 0
-375 372 0
376 -721 -696 0
-376 721 0
-376 696 0
377 -376 -701 0
-377 376 0
-377 701 0
378 -851 -375 0
-378 851 0
-378 375 0
379 -50 -727 0
-379 50 0
-379 727 0
380 -379 -751 0
-380 379 0
-380 751 0
381 -852 -378 0
-381 852 0
-381 378 0
382 -34 -853 0
-382 34 0
-382 853 0
383 -382 -35 0
-383 382 0
-383 35 0
384 -854 -381 0
-384 854 0
-384 381 0
385 -762 -855 0
-385 762 0
-385 855 0
386 -385 -695 0
-386 385 0
-386 695 0
387 -856 -384 0
-387 856 0
-387 384 0
388 -33 -723 0
-388 33 0
-388 723 0
389 -388 -701 0
-389 388 0
-389 701 0
390 -857 -387 0
-390 857 0
-390 387 0
391 -31 -19 0
-391 31 0
-391 19 0
392 -391 -753 0
-392 391 0
-392 753 0
393 -858 -390 0
-393 858 0
-393 390 0
394 -26 -710 0
-394 26 0
-394 710 0
395 -394 -29 0
-395 394 0
-395 29 0
396 -859 -393 0
-396 859 0
-396 393 0
397 -26 -707 0
-397 26 0
-397 707 0
398 -397 -711 0
-398 397 0
-398 711 0
399 -860 -396 0
-399 860 0
-399 396 0
400 -25 -22 0
-400 25 0
-400 22 0
401 -400 -721 0
-401 400 0
-401 721 0
402 -861 -399 0
-402 861 0
-402 399 0
403 -796 -695 0
-403 796 0
-403 695 0
404 -403 -751 0
-404 403 0
-404 751 0
405 -862 -402 0
-405 862 0
-405 402 0
406 -843 -827 0
-406 843 0
-406 827 0
407 -406 -732 0
-407 406 0
-407 732 0
408 -863 -405 0
-408 863 0
-408 405 0
409 -36 -34 0
-409 36 0
-409 34 0
410 -409 -16 0
-410 409 0
-410 16 0
411 -864 -408 0
-411 864 0
-411 408 0
412 -37 -721 0
-412 37 0
-412 721 0
413 -412 -2 0
-413 412 0
-413 2 0
414 -865 -411 0
-414 865 0
-414 411 0
415 -762 -43 0
-415 762 0
-415 43 0
416 -415 -29 0
-416 415 0
-416 29 0
417 -866 -414 0
-417 866 0
-417 414 0
418 -45 -5 0
-418 45 0
-418 5 0
419 -418 -38 0
-419 418 0
-419 38 0
420 -867 -417 0
-420 867 0
-420 417 0
421 -742 -5 0
-421 742 0
-421 5 0
422 -421 -20 0
-422 421 0
-422 20 0
423 -868 -420 0
-423 868 0
-423 420 0
424 -17 -853 0
-424 17 0
-424 853 0
425 -424 -44 0
-425 424 0
-425 44 0
426 -869 -423 0
-426 869 0
-426 423 0
427 -715 -13 0
-427 715 0
-427 13 0
428 -427 -37 0
-428 427 0
-428 37 0
429 -870 -426 0
-429 870 0
-429 426 0
430 -749 -703 0
-430 749 0
-430 703 0
431 -430 -701 0
-431 430 0
-431 701 0
432 -871 -429 0
-432 871 0
-432 429 0
433 -36 -6 0
-433 36 0
-433 6 0
434 -433 -9 0
-434 433 0
-434 9 0
435 -872 -432 0
-435 872 0
-435 432 0
436 -873 -41 0
-436 873 0
-436 41 0
437 -436 -738 0
-437 436 0
-437 738 0
438 -874 -435 0
-438 874 0
-438 435 0
439 -316 -746 0
-439 316 0
-439 746 0
440 -875 -438 0
-440 875 0
-440 438 0
441 -36 -746 0
-441 36 0
-441 746 0
442 -441 -6 0
-442 441 0
-442 6 0
443 -876 -440 0
-443 876 0
-443 440 0
444 -46 -705 0
-444 46 0
-444 705 0
445 -444 -728 0
-445 444 0
-445 728 0
446 -877 -443 0
-446 877 0
-446 443 0
447 -835 -713 0
-447 835 0
-447 713 0
448 -447 -721 0
-448 447 0
-448 721 0
449 -878 -446 0
-449 878 0
-449 446 0
450 -40 -27 0
-450 40 0
-450 27 0
451 -450 -29 0
-451 450 0
-451 29 0
452 -879 -449 0
-452 879 0
-452 449 0
453 -819 -17 0
-453 819 0
-453 17 0
454 -453 -695 0
-454 453 0
-454 695 0
455 -880 -452 0
-455 880 0
-455 452 0
456 -793 -728 0
-456 793 0
-456 728 0
457 -456 -760 0
-457 456 0
-457 760 0
458 -881 -455 0
-458 881 0
-458 455 0
459 -373 -723 0
-459 373 0
-459 723 0
460 -882 -458 0
-460 882 0
-460 458 0
461 -33 -753 0
-461 33 0
-461 753 0
462 -461 -732 0
-462 461 0
-462 732 0
463 -883 -460 0
-463 883 0
-463 460 0
464 -48 -29 0
-464 48 0
-464 29 0
465 -464 -20 0
-465 464 0
-465 20 0
466 -884 -463 0
-466 884 0
-466 463 0
467 -34 -31 0
-467 34 0
-467 31 0
468 -467 -23 0
-468 467 0
-468 23 0
469 -885 -466 0
-469 885 0
-469 466 0
470 -855 -13 0
-470 855 0
-470 13 0
471 -470 -47 0
-471 470 0
-471 47 0
472 -886 -469 0
-472 886 0
-472 469 0
473 -36 -32 0
-473 36 0
-473 32 0
474 -473 -729 0
-474 473 0
-474 729 0
475 -887 -472 0
-475 887 0
-475 472 0
476 -757 -18 0
-476 757 0
-476 18 0
477 -476 -6 0
-477 476 0
-477 6 0
478 -888 -475 0
-478 888 0
-478 475 0
479 -793 -747 0
-479 793 0
-479 747 0
480 -479 -35 0
-480 479 0
-480 35 0
481 -889 -478 0
-481 889 0
-481 478 0
482 -827 -7 0
-482 827 0
-482 7 0
483 -482 -16 0
-483 482 0
-483 16 0
484 -890 -481 0
-484 890 0
-484 481 0
485 -259 -8 0
-485 259 0
-485 8 0
486 -891 -484 0
-486 891 0
-486 484 0
487 -36 -18 0
-487 36 0
-487 18 0
488 -487 -746 0
-488 487 0
-488 746 0
489 -892 -486 0
-489 892 0
-489 486 0
490 -46 -13 0
-490 46 0
-490 13 0
491 -490 -26 0
-491 490 0
-491 26 0
492 -893 -489 0
-492 893 0
-492 489 0
493 -756 -12 0
-493 756 0
-493 12 0
494 -493 -44 0
-494 493 0
-494 44 0
495 -894 -492 0
-495 894 0
-495 492 0
496 -742 -707 0
-496 742 0
-496 707 0
497 -496 -45 0
-497 496 0
-497 45 0
498 -895 -495 0
-498 895 0
-498 495 0
499 -796 -780 0
-499 796 0
-499 780 0
500 -499 -738 0
-500 499 0
-500 738 0
501 -896 -498 0
-501 896 0
-501 498 0
502 -44 -744 0
-502 44 0
-502 744 0
503 -502 -716 0
-503 502 0
-503 716 0
504 -897 -501 0
-504 897 0
-504 501 0
505 -718 -4 0
-505 718 0
-505 4 0
506 -505 -18 0
-506 505 0
-506 18 0
507 -898 -504 0
-507 898 0
-507 504 0
508 -728 -719 0
-508 728 0
-508 719 0
509 -508 -778 0
-509 508 0
-509 778 0
510 -899 -507 0
-510 899 0
-510 507 0
511 -49 -757 0
-511 49 0
-511 757 0
512 -511 -711 0
-512 511 0
-512 711 0
513 -900 -510 0
-513 900 0
-513 510 0
514 -740 -12 0
-514 740 0
-514 12 0
515 -514 -729 0
-515 514 0
-515 729 0
516 -901 -513 0
-516 901 0
-516 513 0
517 -835 -31 0
-517 835 0
-517 31 0
518 -517 -40 0
-518 517 0
-518 40 0
519 -902 -516 0
-519 902 0
-519 516 0
520 -723 -10 0
-520 723 0
-520 10 0
521 -520 -44 0
-521 520 0
-521 44 0
522 -903 -519 0
-522 903 0
-522 519 0
523 -749 -695 0
-523 749 0
-523 695 0
524 -523 -721 0
-524 523 0
-524 721 0
525 -904 -522 0
-525 904 0
-525 522 0
526 -499 -44 0
-526 499 0
-526 44 0
527 -905 -525 0
-527 905 0
-527 525 0
528 -48 -5 0
-528 48 0
-528 5 0
529 -528 -38 0
-529 528 0
-529 38 0
530 -906 -527 0
-530 906 0
-530 527 0
531 -757 -14 0
-531 757 0
-531 14 0
532 -531 -47 0
-532 531 0
-532 47 0
533 -907 -530 0
-533 907 0
-533 530 0
534 -742 -11 0
-534 742 0
-534 11 0
535 -534 -20 0
-535 534 0
-535 20 0
536 -908 -533 0
-536 908 0
-536 533 0
537 -46 -14 0
-537 46 0
-537 14 0
538 -537 -31 0
-538 537 0
-538 31 0
539 -909 -536 0
-539 909 0
-539 536 0
540 -710 -747 0
-540 710 0
-540 747 0
541 -540 -709 0
-541 540 0
-541 709 0
542 -910 -539 0
-542 910 0
-542 539 0
543 -31 -696 0
-543 31 0
-543 696 0
544 -543 -718 0
-544 543 0
-544 718 0
545 -911 -542 0
-545 911 0
-545 542 0
546 -707 -747 0
-546 707 0
-546 747 0
547 -546 -853 0
-547 546 0
-547 853 0
548 -912 -545 0
-548 912 0
-548 545 0
549 -873 -47 0
-549 873 0
-549 47 0
550 -549 -22 0
-550 549 0
-550 22 0
551 -913 -548 0
-551 913 0
-551 548 0
552 -50 -695 0
-552 50 0
-552 695 0
553 -552 -721 0
-553 552 0
-553 721 0
554 -914 -551 0
-554 914 0
-554 551 0
555 -37 -28 0
-555 37 0
-555 28 0
556 -555 -15 0
-556 555 0
-556 15 0
557 -915 -554 0
-557 915 0
-557 554 0
558 -731 -10 0
-558 731 0
-558 10 0
559 -558 -46 0
-559 558 0
-559 46 0
560 -916 -557 0
-560 916 0
-560 557 0
561 -855 -18 0
-561 855 0
-561 18 0
562 -561 -701 0
-562 561 0
-562 701 0
563 -917 -560 0
-563 917 0
-563 560 0
564 -796 -744 0
-564 796 0
-564 744 0
565 -564 -711 0
-565 564 0
-565 711 0
566 -918 -563 0
-566 918 0
-566 563 0
567 -49 -707 0
-567 49 0
-567 707 0
568 -567 -6 0
-568 567 0
-568 6 0
569 -919 -566 0
-569 919 0
-569 566 0
570 -34 -10 0
-570 34 0
-570 10 0
571 -570 -9 0
-571 570 0
-571 9 0
572 -920 -569 0
-572 920 0
-572 569 0
573 -731 -853 0
-573 731 0
-573 853 0
574 -573 -701 0
-574 573 0
-574 701 0
575 -921 -572 0
-575 921 0
-575 572 0
576 -21 -715 0
-576 21 0
-576 715 0
577 -576 -711 0
-577 576 0
-577 711 0
578 -922 -575 0
-578 922 0
-578 575 0
579 -48 -45 0
-579 48 0
-579 45 0
580 -579 -853 0
-580 579 0
-580 853 0
581 -923 -578 0
-581 923 0
-581 578 0
582 -218 -709 0
-582 218 0
-582 709 0
583 -924 -581 0
-583 924 0
-583 581 0
584 -705 -700 0
-584 705 0
-584 700 0
585 -584 -45 0
-585 584 0
-585 45 0
586 -925 -583 0
-586 925 0
-586 583 0
587 -43 -707 0
-587 43 0
-587 707 0
588 -587 -771 0
-588 587 0
-588 771 0
589 -926 -586 0
-589 926 0
-589 586 0
590 -47 -696 0
-590 47 0
-590 696 0
591 -590 -734 0
-591 590 0
-591 734 0
592 -927 -589 0
-592 927 0
-592 589 0
593 -713 -6 0
-593 713 0
-593 6 0
594 -593 -15 0
-594 593 0
-594 15 0
595 -928 -592 0
-595 928 0
-595 592 0
596 -62 -23 0
-596 62 0
-596 23 0
597 -929 -595 0
-597 929 0
-597 595 0
598 -140 -46 0
-598 140 0
-598 46 0
599 -930 -597 0
-599 930 0
-599 597 0
600 -703 -4 0
-600 703 0
-600 4 0
601 -600 -727 0
-601 600 0
-601 727 0
602 -931 -599 0
-602 931 0
-602 599 0
603 -835 -1 0
-603 835 0
-603 1 0
604 -603 -723 0
-604 603 0
-604 723 0
605 -932 -602 0
-605 932 0
-605 602 0
606 -731 -28 0
-606 731 0
-606 28 0
607 -606 -20 0
-607 606 0
-607 20 0
608 -933 -605 0
-608 933 0
-608 605 0
609 -855 -715 0
-609 855 0
-609 715 0
610 -609 -713 0
-610 609 0
-610 713 0
611 -934 -608 0
-611 934 0
-611 608 0
612 -757 -827 0
-612 757 0
-612 827 0
613 -612 -746 0
-613 612 0
-613 746 0
614 -935 -611 0
-614 935 0
-614 611 0
615 -33 -827 0
-615 33 0
-615 827 0
616 -615 -716 0
-616 615 0
-616 716 0
617 -936 -614 0
-617 936 0
-617 614 0
618 -26 -744 0
-618 26 0
-618 744 0
619 -618 -760 0
-619 618 0
-619 760 0
620 -937 -617 0
-620 937 0
-620 617 0
621 -30 -697 0
-621 30 0
-621 697 0
622 -621 -23 0
-622 621 0
-622 23 0
623 -938 -620 0
-623 938 0
-623 620 0
624 -39 -18 0
-624 39 0
-624 18 0
625 -624 -33 0
-625 624 0
-625 33 0
626 -939 -623 0
-626 939 0
-626 623 0
627 -30 -12 0
-627 30 0
-627 12 0
628 -627 -3 0
-628 627 0
-628 3 0
629 -940 -626 0
-629 940 0
-629 626 0
630 -15 -747 0
-630 15 0
-630 747 0
631 -630 -38 0
-631 630 0
-631 38 0
632 -941 -629 0
-632 941 0
-632 629 0
633 -793 -31 0
-633 793 0
-633 31 0
634 -633 -703 0
-634 633 0
-634 703 0
635 -942 -632 0
-635 942 0
-635 632 0
636 -49 -42 0
-636 49 0
-636 42 0
637 -636 -873 0
-637 636 0
-637 873 0
638 -943 -635 0
-638 943 0
-638 635 0
639 -36 -713 0
-639 36 0
-639 713 0
640 -639 -725 0
-640 639 0
-640 725 0
641 -944 -638 0
-641 944 0
-641 638 0
642 -38 -746 0
-642 38 0
-642 746 0
643 -642 -2 0
-643 642 0
-643 2 0
644 -945 -641 0
-644 945 0
-644 641 0
645 -636 -718 0
-645 636 0
-645 718 0
646 -946 -644 0
-646 946 0
-646 644 0
647 -731 -721 0
-647 731 0
-647 721 0
648 -647 -701 0
-648 647 0
-648 701 0
649 -947 -646 0
-649 947 0
-649 646 0
650 -762 -18 0
-650 762 0
-650 18 0
651 -650 -30 0
-651 650 0
-651 30 0
652 -948 -649 0
-652 948 0
-652 649 0
653 -746 -843 0
-653 746 0
-653 843 0
654 -653 -853 0
-654 653 0
-654 853 0
655 -949 -652 0
-655 949 0
-655 652 0
656 -796 -41 0
-656 796 0
-656 41 0
657 -656 -703 0
-657 656 0
-657 703 0
658 -950 -655 0
-658 950 0
-658 655 0
659 -48 -4 0
-659 48 0
-659 4 0
660 -659 -843 0
-660 659 0
-660 843 0
661 -951 -658 0
-661 951 0
-661 658 0
662 -827 -11 0
-662 827 0
-662 11 0
663 -662 -853 0
-663 662 0
-663 853 0
664 -952 -661 0
-664 952 0
-664 661 0
665 -48 -695 0
-665 48 0
-665 695 0
666 -665 -778 0
-666 665 0
-666 778 0
667 -953 -664 0
-667 953 0
-667 664 0
668 -710 -7 0
-668 710 0
-668 7 0
669 -668 -721 0
-669 668 0
-669 721 0
670 -954 -667 0
-670 954 0
-670 667 0
671 -728 -18 0
-671 728 0
-671 18 0
672 -671 -716 0
-672 671 0
-672 716 0
673 -955 -670 0
-673 955 0
-673 670 0
674 -47 -710 0
-674 47 0
-674 710 0
675 -674 -751 0
-675 674 0
-675 751 0
676 -956 -673 0
-676 956 0
-676 673 0
677 -873 -24 0
-677 873 0
-677 24 0
678 -677 -38 0
-678 677 0
-678 38 0
679 -957 -676 0
-679 957 0
-679 676 0
680 -835 -41 0
-680 835 0
-680 41 0
681 -680 -5 0
-681 680 0
-681 5 0
682 -958 -679 0
-682 958 0
-682 679 0
683 -835 -715 0
-683 835 0
-683 715 0
684 -683 -7 0
-684 683 0
-684 7 0
685 -959 -682 0
-685 959 0
-685 682 0
686 -855 -14 0
-686 855 0
-686 14 0
687 -686 -734 0
-687 686 0
-687 734 0
688 -960 -685 0
-688 960 0
-688 685 0
689 -34 -25 0
-689 34 0
-689 25 0
690 -689 -711 0
-690 689 0
-690 711 0
691 -961 -688 0
-691 961 0
-691 688 0
692 -738 -700 0
-692 738 0
-692 700 0
693 -692 -28 0
-693 692 0
-693 28 0
694 -962 -691 0
-694 962 0
-694 691 0
-695 -1 0
695 1 0
-696 -4 0
696 4 0
-697 -6 0
697 6 0
-698 -54 0
698 54 0
-699 -52 0
699 52 0
-700 -7 0
700 7 0
-701 -8 0
701 8 0
-702 -57 0
702 57 0
-703 -5 0
703 5 0
-704 -60 0
704 60 0
-705 -10 0
705 10 0
-706 -63 0
706 63 0
-707 -13 0
707 13 0
-708 -66 0
708 66 0
-709 -15 0
709 15 0
-710 -14 0
710 14 0
-711 -16 0
711 16 0
-712 -69 0
712 69 0
-713 -18 0
713 18 0
-714 -72 0
714 72 0
-715 -19 0
715 19 0
-716 -9 0
716 9 0
-717 -75 0
717 75 0
-718 -22 0
718 22 0
-719 -21 0
719 21 0
-720 -78 0
720 78 0
-721 -26 0
721 26 0
-722 -81 0
722 81 0
-723 -29 0
723 29 0
-724 -84 0
724 84 0
-725 -30 0
725 30 0
-726 -87 0
726 87 0
-727 -32 0
727 32 0
-728 -31 0
728 31 0
-729 -33 0
729 33 0
-730 -90 0
730 90 0
-731 -34 0
731 34 0
-732 -35 0
732 35 0
-733 -93 0
733 93 0
-734 -37 0
734 37 0
-735 -96 0
735 96 0
-736 -99 0
736 99 0
-737 -102 0
737 102 0
-738 -40 0
738 40 0
-739 -105 0
739 105 0
-740 -24 0
740 24 0
-741 -108 0
741 108 0
-742 -41 0
742 41 0
-743 -111 0
743 111 0
-744 -25 0
744 25 0
-745 -114 0
745 114 0
-746 -28 0
746 28 0
-747 -12 0
747 12 0
-748 -117 0
748 117 0
-749 -42 0
749 42 0
-750 -120 0
750 120 0
-751 -3 0
751 3 0
-752 -123 0
752 123 0
-753 -20 0
753 20 0
-754 -126 0
754 126 0
-755 -129 0
755 129 0
-756 -43 0
756 43 0
-757 -39 0
757 39 0
-758 -132 0
758 132 0
-759 -135 0
759 135 0
-760 -44 0
760 44 0
-761 -138 0
761 138 0
-762 -45 0
762 45 0
-763 -141 0
763 141 0
-764 -144 0
764 144 0
-765 -147 0
765 147 0
-766 -150 0
766 150 0
-767 -153 0
767 153 0
-768 -156 0
768 156 0
-769 -159 0
769 159 0
-770 -162 0
770 162 0
-771 -23 0
771 23 0
-772 -165 0
772 165 0
-773 -168 0
773 168 0
-774 -171 0
774 171 0
-775 -174 0
775 174 0
-776 -177 0
776 177 0
-777 -180 0
777 180 0
-778 -38 0
778 38 0
-779 -183 0
779 183 0
-780 -11 0
780 11 0
-781 -186 0
781 186 0
-782 -189 0
782 189 0
-783 -192 0
783 192 0
-784 -195 0
784 195 0
-785 -198 0
785 198 0
-786 -201 0
786 201 0
-787 -204 0
787 204 0
-788 -207 0
788 207 0
-789 -210 0
789 210 0
-790 -213 0
790 213 0
-791 -216 0
791 216 0
-792 -219 0
792 219 0
-793 -47 0
793 47 0
-794 -222 0
794 222 0
-795 -225 0
795 225 0
-796 -46 0
796 46 0
-797 -228 0
797 228 0
-798 -231 0
798 231 0
-799 -234 0
799 234 0
-800 -237 0
800 237 0
-801 -240 0
801 240 0
-802 -243 0
802 243 0
-803 -245 0
803 245 0
-804 -248 0
804 248 0
-805 -251 0
805 251 0
-806 -254 0
806 254 0
-807 -257 0
807 257 0
-808 -260 0
808 260 0
-809 -263 0
809 263 0
-810 -266 0
810 266 0
-811 -269 0
811 269 0
-812 -272 0
812 272 0
-813 -275 0
813 275 0
-814 -278 0
814 278 0
-815 -281 0
815 281 0
-816 -284 0
816 284 0
-817 -287 0
817 287 0
-818 -290 0
818 290 0
-819 -49 0
819 49 0
-820 -293 0
820 293 0
-821 -296 0
821 296 0
-822 -299 0
822 299 0
-823 -302 0
823 302 0
-824 -305 0
824 305 0
-825 -308 0
825 308 0
-826 -311 0
826 311 0
-827 -17 0
827 17 0
-828 -314 0
828 314 0
-829 -317 0
829 317 0
-830 -320 0
830 320 0
-831 -323 0
831 323 0
-832 -326 0
832 326 0
-833 -329 0
833 329 0
-834 -332 0
834 332 0
-835 -50 0
835 50 0
-836 -335 0
836 335 0
-837 -338 0
837 338 0
-838 -341 0
838 341 0
-839 -344 0
839 344 0
-840 -347 0
840 347 0
-841 -350 0
841 350 0
-842 -353 0
842 353 0
-843 -27 0
843 27 0
-844 -356 0
844 356 0
-845 -359 0
845 359 0
-846 -362 0
846 362 0
-847 -365 0
847 365 0
-848 -368 0
848 368 0
-849 -371 0
849 371 0
-850 -374 0
850 374 0
-851 -377 0
851 377 0
-852 -380 0
852 380 0
-853 -2 0
853 2 0
-854 -383 0
854 383 0
-855 -36 0
855 36 0
-856 -386 0
856 386 0
-857 -389 0
857 389 0
-858 -392 0
858 392 0
-859 -395 0
859 395 0
-860 -398 0
860 398 0
-861 -401 0
861 401 0
-862 -404 0
862 404 0
-863 -407 0
863 407 0
-864 -410 0
864 410 0
-865 -413 0
865 413 0
-866 -416 0
866 416 0
-867 -419 0
867 419 0
-868 -422 0
868 422 0
-869 -425 0
869 425 0
-870 -428 0
870 428 0
-871 -431 0
871 431 0
-872 -434 0
872 434 0
-873 -48 0
873 48 0
-874 -437 0
874 437 0
-875 -439 0
875 439 0
-876 -442 0
876 442 0
-877 -445 0
877 445 0
-878 -448 0
878 448 0
-879 -451 0
879 451 0
-880 -454 0
880 454 0
-881 -457 0
881 457 0
-882 -459 0
882 459 0
-883 -462 0
883 462 0
-884 -465 0
884 465 0
-885 -468 0
885 468 0
-886 -471 0
886 471 0
-887 -474 0
887 474 0
-888 -477 0
888 477 0
-889 -480 0
889 480 0
-890 -483 0
890 483 0
-891 -485 0
891 485 0
-892 -488 0
892 488 0
-893 -491 0
893 491 0
-894 -494 0
894 494 0
-895 -497 0
895 497 0
-896 -500 0
896 500 0
-897 -503 0
897 503 0
-898 -506 0
898 506 0
-899 -509 0
899 509 0
-900 -512 0
900 512 0
-901 -515 0
901 515 0
-902 -518 0
902 518 0
-903 -521 0
903 521 0
-904 -524 0
904 524 0
-905 -526 0
905 526 0
-906 -529 0
906 529 0
-907 -532 0
907 532 0
-908 -535 0
908 535 0
-909 -538 0
909 538 0
-910 -541 0
910 541 0
-911 -544 0
911 544 0
-912 -547 0
912 547 0
-913 -550 0
913 550 0
-914 -553 0
914 553 0
-915 -556 0
915 556 0
-916 -559 0
916 559 0
-917 -562 0
917 562 0
-918 -565 0
918 565 0
-919 -568 0
919 568 0
-920 -571 0
920 571 0
-921 -574 0
921 574 0
-922 -577 0
922 577 0
-923 -580 0
923 580 0
-924 -582 0
924 582 0
-925 -585 0
925 585 0
-926 -588 0
926 588 0
-927 -591 0
927 591 0
-928 -594 0
928 594 0
-929 -596 0
929 596 0
-930 -598 0
930 598 0
-931 -601 0
931 601 0
-932 -604 0
932 604 0
-933 -607 0
933 607 0
-934 -610 0
934 610 0
-935 -613 0
935 613 0
-936 -616 0
936 616 0
-937 -619 0
937 619 0
-938 -622 0
938 622 0
-939 -625 0
939 625 0
-940 -628 0
940 628 0
-941 -631 0
941 631 0
-942 -634 0
942 634 0
-943 -637 0
943 637 0
-944 -640 0
944 640 0
-945 -643 0
945 643 0
-946 -645 0
946 645 0
-947 -648 0
947 648 0
-948 -651 0
948 651 0
-949 -654 0
949 654 0
-950 -657 0
950 657 0
-951 -660 0
951 660 0
-952 -663 0
952 663 0
-953 -666 0
953 666 0
-954 -669 0
954 669 0
-955 -672 0
955 672 0
-956 -675 0
956 675 0
-957 -678 0
957 678 0
-958 -681 0
958 681 0
-959 -684 0
959 684 0
-960 -687 0
960 687 0
-961 -690 0
961 690 0
-962 -693 0
962 693 0
694 0
